% File represents an instance of a Composite Structure problem to be solved by a CP framework
% Created on 2025-03-26 10:41:21.419
T = 54;
n = 16;
m = 24;
edges = [(2, 1),
(6, 5),
(10, 9),
(13, 14),
(3, 2),
(7, 6),
(11, 10),
(15, 14),
(4, 3),
(8, 7),
(12, 11),
(16, 15),
(5, 1),
(9, 5),
(13, 9),
(6, 2),
(10, 6),
(10, 14),
(7, 3),
(11, 7),
(11, 15),
(8, 4),
(12, 8),
(12, 16)];
counts = [|12, 2, 12, 6,
|14, 2, 14, 6,
|14, 2, 14, 12,
|16, 2, 16, 14,
|14, 2, 14, 6,
|14, 2, 14, 12,
|14, 2, 14, 16,
|16, 2, 16, 18,
|14, 2, 14, 8,
|14, 2, 14, 14,
|14, 2, 14, 18,
|16, 2, 16, 20,
|14, 2, 14, 10,
|14, 2, 14, 8,
|14, 2, 14, 12,
|16, 2, 16, 14|];
